;(set-option :produce-unsat-cores true )
(set-logic ALL_SUPPORTED )
(declare-sort Nat$ 0 )
(declare-sort Nat_set$ 0 )
(declare-sort Nat_nat_fun$ 0 )
(declare-sort Nat_bool_fun$ 0 )
(declare-sort Nat_nat_nat_prod_fun$ 0 )
(declare-sort Nat_nat_prod_nat_fun$ 0 )
(declare-sort Nat_nat_nat_prod_nat_fun_fun$ 0 )
(declare-sort Nat_nat_prod_nat_fun_nat_fun$ 0 )
(declare-sort Nat_nat_prod_nat_nat_prod_fun$ 0 )
(declare-sort Nat_nat_prod_nat_fun_nat_nat_prod_fun$ 0 )
(declare-sort Nat_nat_prod_nat_nat_prod_nat_fun_fun$ 0 )
(declare-sort Nat_nat_prod_nat_fun_nat_nat_prod_nat_fun_fun$ 0 )
(declare-sort Nat_nat_nat_prod_nat_fun_nat_nat_prod_nat_fun_fun_fun$ 0 )
(declare-sort Nat_nat_prod_nat_fun_nat_nat_prod_nat_fun_fun_nat_fun$ 0 )
(declare-sort Nat_nat_prod_nat_fun_nat_nat_prod_nat_fun_fun_nat_nat_prod_fun$ 0 )
(declare-sort Nat_nat_prod_nat_fun_nat_nat_prod_nat_fun_fun_nat_nat_prod_nat_fun_fun$ 0 )
(declare-sort Nat_nat_prod_nat_fun_nat_nat_prod_nat_fun_nat_nat_prod_nat_fun_fun_fun$ 0 )
(declare-sort Nat_nat_prod_nat_fun_nat_nat_prod_nat_fun_fun_nat_nat_prod_nat_fun_nat_nat_prod_nat_fun_fun_fun$ 0 )
(declare-sort Nat_tree$ 0)
(declare-sort Nat_nat_prod_nat_fun_tree$ 0)
(declare-fun root$ (Nat_tree$)Nat$)
(declare-fun left$ (Nat_tree$)Nat_tree$)
(declare-fun right$ (Nat_tree$)Nat_tree$)
(declare-fun node$ (Nat$ Nat_tree$ Nat_tree$ )Nat_tree$)
(declare-fun select$ (Nat_nat_prod_nat_fun_tree$)Nat_nat_prod_nat_fun$)
(declare-fun selecta$ (Nat_nat_prod_nat_fun_tree$)Nat_nat_prod_nat_fun_tree$)
(declare-fun selectb$ (Nat_nat_prod_nat_fun_tree$)Nat_nat_prod_nat_fun_tree$)
(declare-fun node$a (Nat_nat_prod_nat_fun$ Nat_nat_prod_nat_fun_tree$ Nat_nat_prod_nat_fun_tree$ )Nat_nat_prod_nat_fun_tree$)
(declare-sort Nat_nat_prod$ 0)
(declare-fun fst$ (Nat_nat_prod$)Nat$)
(declare-fun snd$ (Nat_nat_prod$)Nat$)
(declare-fun pair$ (Nat$ Nat$ )Nat_nat_prod$)
(declare-sort Nat_nat_prod_tree$ 0)
(declare-sort Nat_nat_prod_nat_fun_nat_nat_prod_nat_fun_fun_tree$ 0)
(declare-sort Nat_nat_fun_tree$ 0)
(declare-sort Nat_nat_nat_prod_fun_tree$ 0)
(declare-sort Nat_nat_prod_nat_fun_nat_fun_tree$ 0)
(declare-sort Nat_nat_prod_nat_nat_prod_fun_tree$ 0)
(declare-sort Nat_nat_nat_prod_nat_fun_fun_tree$ 0)
(declare-sort Nat_nat_prod_nat_fun_nat_nat_prod_fun_tree$ 0)
(declare-sort Nat_nat_prod_nat_nat_prod_nat_fun_fun_tree$ 0)
(declare-sort Nat_nat_nat_prod_nat_fun_nat_nat_prod_nat_fun_fun_fun_tree$ 0)
(declare-sort Nat_nat_prod_nat_fun_nat_nat_prod_nat_fun_nat_nat_prod_nat_fun_fun_fun_tree$ 0)
(declare-sort Nat_nat_prod_nat_fun_nat_nat_prod_nat_fun_fun_nat_nat_prod_fun_tree$ 0)
(declare-sort Nat_nat_prod_nat_fun_nat_nat_prod_nat_fun_fun_nat_fun_tree$ 0)
(declare-sort Nat_nat_prod_nat_fun_nat_nat_prod_nat_fun_fun_nat_nat_prod_nat_fun_fun_tree$ 0)
(declare-sort Nat_nat_prod_nat_fun_nat_nat_prod_nat_fun_fun_nat_nat_prod_nat_fun_nat_nat_prod_nat_fun_fun_fun_tree$ 0)
(declare-sort Nat_tree_tree$ 0)
(declare-sort Nat_tree_tree_tree$ 0)
(declare-fun root$a (Nat_nat_prod_tree$)Nat_nat_prod$)
(declare-fun left$a (Nat_nat_prod_tree$)Nat_nat_prod_tree$)
(declare-fun right$a (Nat_nat_prod_tree$)Nat_nat_prod_tree$)
(declare-fun node$b (Nat_nat_prod$ Nat_nat_prod_tree$ Nat_nat_prod_tree$ )Nat_nat_prod_tree$)
(declare-fun selectc$ (Nat_nat_prod_nat_fun_nat_nat_prod_nat_fun_fun_tree$)Nat_nat_prod_nat_fun_nat_nat_prod_nat_fun_fun$)
(declare-fun selectd$ (Nat_nat_prod_nat_fun_nat_nat_prod_nat_fun_fun_tree$)Nat_nat_prod_nat_fun_nat_nat_prod_nat_fun_fun_tree$)
(declare-fun selecte$ (Nat_nat_prod_nat_fun_nat_nat_prod_nat_fun_fun_tree$)Nat_nat_prod_nat_fun_nat_nat_prod_nat_fun_fun_tree$)
(declare-fun node$c (Nat_nat_prod_nat_fun_nat_nat_prod_nat_fun_fun$ Nat_nat_prod_nat_fun_nat_nat_prod_nat_fun_fun_tree$ Nat_nat_prod_nat_fun_nat_nat_prod_nat_fun_fun_tree$ )Nat_nat_prod_nat_fun_nat_nat_prod_nat_fun_fun_tree$)
(declare-fun selectf$ (Nat_nat_fun_tree$)Nat_nat_fun$)
(declare-fun selectg$ (Nat_nat_fun_tree$)Nat_nat_fun_tree$)
(declare-fun selecth$ (Nat_nat_fun_tree$)Nat_nat_fun_tree$)
(declare-fun node$d (Nat_nat_fun$ Nat_nat_fun_tree$ Nat_nat_fun_tree$ )Nat_nat_fun_tree$)
(declare-fun selecti$ (Nat_nat_nat_prod_fun_tree$)Nat_nat_nat_prod_fun$)
(declare-fun selectj$ (Nat_nat_nat_prod_fun_tree$)Nat_nat_nat_prod_fun_tree$)
(declare-fun selectk$ (Nat_nat_nat_prod_fun_tree$)Nat_nat_nat_prod_fun_tree$)
(declare-fun node$e (Nat_nat_nat_prod_fun$ Nat_nat_nat_prod_fun_tree$ Nat_nat_nat_prod_fun_tree$ )Nat_nat_nat_prod_fun_tree$)
(declare-fun selectl$ (Nat_nat_prod_nat_fun_nat_fun_tree$)Nat_nat_prod_nat_fun_nat_fun$)
(declare-fun selectm$ (Nat_nat_prod_nat_fun_nat_fun_tree$)Nat_nat_prod_nat_fun_nat_fun_tree$)
(declare-fun selectn$ (Nat_nat_prod_nat_fun_nat_fun_tree$)Nat_nat_prod_nat_fun_nat_fun_tree$)
(declare-fun node$f (Nat_nat_prod_nat_fun_nat_fun$ Nat_nat_prod_nat_fun_nat_fun_tree$ Nat_nat_prod_nat_fun_nat_fun_tree$ )Nat_nat_prod_nat_fun_nat_fun_tree$)
(declare-fun selecto$ (Nat_nat_prod_nat_nat_prod_fun_tree$)Nat_nat_prod_nat_nat_prod_fun$)
(declare-fun selectp$ (Nat_nat_prod_nat_nat_prod_fun_tree$)Nat_nat_prod_nat_nat_prod_fun_tree$)
(declare-fun selectq$ (Nat_nat_prod_nat_nat_prod_fun_tree$)Nat_nat_prod_nat_nat_prod_fun_tree$)
(declare-fun node$g (Nat_nat_prod_nat_nat_prod_fun$ Nat_nat_prod_nat_nat_prod_fun_tree$ Nat_nat_prod_nat_nat_prod_fun_tree$ )Nat_nat_prod_nat_nat_prod_fun_tree$)
(declare-fun selectr$ (Nat_nat_nat_prod_nat_fun_fun_tree$)Nat_nat_nat_prod_nat_fun_fun$)
(declare-fun selects$ (Nat_nat_nat_prod_nat_fun_fun_tree$)Nat_nat_nat_prod_nat_fun_fun_tree$)
(declare-fun selectt$ (Nat_nat_nat_prod_nat_fun_fun_tree$)Nat_nat_nat_prod_nat_fun_fun_tree$)
(declare-fun node$h (Nat_nat_nat_prod_nat_fun_fun$ Nat_nat_nat_prod_nat_fun_fun_tree$ Nat_nat_nat_prod_nat_fun_fun_tree$ )Nat_nat_nat_prod_nat_fun_fun_tree$)
(declare-fun selectu$ (Nat_nat_prod_nat_fun_nat_nat_prod_fun_tree$)Nat_nat_prod_nat_fun_nat_nat_prod_fun$)
(declare-fun selectv$ (Nat_nat_prod_nat_fun_nat_nat_prod_fun_tree$)Nat_nat_prod_nat_fun_nat_nat_prod_fun_tree$)
(declare-fun selectw$ (Nat_nat_prod_nat_fun_nat_nat_prod_fun_tree$)Nat_nat_prod_nat_fun_nat_nat_prod_fun_tree$)
(declare-fun node$i (Nat_nat_prod_nat_fun_nat_nat_prod_fun$ Nat_nat_prod_nat_fun_nat_nat_prod_fun_tree$ Nat_nat_prod_nat_fun_nat_nat_prod_fun_tree$ )Nat_nat_prod_nat_fun_nat_nat_prod_fun_tree$)
(declare-fun selectx$ (Nat_nat_prod_nat_nat_prod_nat_fun_fun_tree$)Nat_nat_prod_nat_nat_prod_nat_fun_fun$)
(declare-fun selecty$ (Nat_nat_prod_nat_nat_prod_nat_fun_fun_tree$)Nat_nat_prod_nat_nat_prod_nat_fun_fun_tree$)
(declare-fun selectz$ (Nat_nat_prod_nat_nat_prod_nat_fun_fun_tree$)Nat_nat_prod_nat_nat_prod_nat_fun_fun_tree$)
(declare-fun node$j (Nat_nat_prod_nat_nat_prod_nat_fun_fun$ Nat_nat_prod_nat_nat_prod_nat_fun_fun_tree$ Nat_nat_prod_nat_nat_prod_nat_fun_fun_tree$ )Nat_nat_prod_nat_nat_prod_nat_fun_fun_tree$)
(declare-fun selecua$ (Nat_nat_nat_prod_nat_fun_nat_nat_prod_nat_fun_fun_fun_tree$)Nat_nat_nat_prod_nat_fun_nat_nat_prod_nat_fun_fun_fun$)
(declare-fun selecub$ (Nat_nat_nat_prod_nat_fun_nat_nat_prod_nat_fun_fun_fun_tree$)Nat_nat_nat_prod_nat_fun_nat_nat_prod_nat_fun_fun_fun_tree$)
(declare-fun selecuc$ (Nat_nat_nat_prod_nat_fun_nat_nat_prod_nat_fun_fun_fun_tree$)Nat_nat_nat_prod_nat_fun_nat_nat_prod_nat_fun_fun_fun_tree$)
(declare-fun node$k (Nat_nat_nat_prod_nat_fun_nat_nat_prod_nat_fun_fun_fun$ Nat_nat_nat_prod_nat_fun_nat_nat_prod_nat_fun_fun_fun_tree$ Nat_nat_nat_prod_nat_fun_nat_nat_prod_nat_fun_fun_fun_tree$ )Nat_nat_nat_prod_nat_fun_nat_nat_prod_nat_fun_fun_fun_tree$)
(declare-fun selecud$ (Nat_nat_prod_nat_fun_nat_nat_prod_nat_fun_nat_nat_prod_nat_fun_fun_fun_tree$)Nat_nat_prod_nat_fun_nat_nat_prod_nat_fun_nat_nat_prod_nat_fun_fun_fun$)
(declare-fun selecue$ (Nat_nat_prod_nat_fun_nat_nat_prod_nat_fun_nat_nat_prod_nat_fun_fun_fun_tree$)Nat_nat_prod_nat_fun_nat_nat_prod_nat_fun_nat_nat_prod_nat_fun_fun_fun_tree$)
(declare-fun selecuf$ (Nat_nat_prod_nat_fun_nat_nat_prod_nat_fun_nat_nat_prod_nat_fun_fun_fun_tree$)Nat_nat_prod_nat_fun_nat_nat_prod_nat_fun_nat_nat_prod_nat_fun_fun_fun_tree$)
(declare-fun node$l (Nat_nat_prod_nat_fun_nat_nat_prod_nat_fun_nat_nat_prod_nat_fun_fun_fun$ Nat_nat_prod_nat_fun_nat_nat_prod_nat_fun_nat_nat_prod_nat_fun_fun_fun_tree$ Nat_nat_prod_nat_fun_nat_nat_prod_nat_fun_nat_nat_prod_nat_fun_fun_fun_tree$ )Nat_nat_prod_nat_fun_nat_nat_prod_nat_fun_nat_nat_prod_nat_fun_fun_fun_tree$)
(declare-fun selecug$ (Nat_nat_prod_nat_fun_nat_nat_prod_nat_fun_fun_nat_nat_prod_fun_tree$)Nat_nat_prod_nat_fun_nat_nat_prod_nat_fun_fun_nat_nat_prod_fun$)
(declare-fun selecuh$ (Nat_nat_prod_nat_fun_nat_nat_prod_nat_fun_fun_nat_nat_prod_fun_tree$)Nat_nat_prod_nat_fun_nat_nat_prod_nat_fun_fun_nat_nat_prod_fun_tree$)
(declare-fun selecui$ (Nat_nat_prod_nat_fun_nat_nat_prod_nat_fun_fun_nat_nat_prod_fun_tree$)Nat_nat_prod_nat_fun_nat_nat_prod_nat_fun_fun_nat_nat_prod_fun_tree$)
(declare-fun node$m (Nat_nat_prod_nat_fun_nat_nat_prod_nat_fun_fun_nat_nat_prod_fun$ Nat_nat_prod_nat_fun_nat_nat_prod_nat_fun_fun_nat_nat_prod_fun_tree$ Nat_nat_prod_nat_fun_nat_nat_prod_nat_fun_fun_nat_nat_prod_fun_tree$ )Nat_nat_prod_nat_fun_nat_nat_prod_nat_fun_fun_nat_nat_prod_fun_tree$)
(declare-fun selecuj$ (Nat_nat_prod_nat_fun_nat_nat_prod_nat_fun_fun_nat_fun_tree$)Nat_nat_prod_nat_fun_nat_nat_prod_nat_fun_fun_nat_fun$)
(declare-fun selecuk$ (Nat_nat_prod_nat_fun_nat_nat_prod_nat_fun_fun_nat_fun_tree$)Nat_nat_prod_nat_fun_nat_nat_prod_nat_fun_fun_nat_fun_tree$)
(declare-fun selecul$ (Nat_nat_prod_nat_fun_nat_nat_prod_nat_fun_fun_nat_fun_tree$)Nat_nat_prod_nat_fun_nat_nat_prod_nat_fun_fun_nat_fun_tree$)
(declare-fun node$n (Nat_nat_prod_nat_fun_nat_nat_prod_nat_fun_fun_nat_fun$ Nat_nat_prod_nat_fun_nat_nat_prod_nat_fun_fun_nat_fun_tree$ Nat_nat_prod_nat_fun_nat_nat_prod_nat_fun_fun_nat_fun_tree$ )Nat_nat_prod_nat_fun_nat_nat_prod_nat_fun_fun_nat_fun_tree$)
(declare-fun selecum$ (Nat_nat_prod_nat_fun_nat_nat_prod_nat_fun_fun_nat_nat_prod_nat_fun_fun_tree$)Nat_nat_prod_nat_fun_nat_nat_prod_nat_fun_fun_nat_nat_prod_nat_fun_fun$)
(declare-fun selecun$ (Nat_nat_prod_nat_fun_nat_nat_prod_nat_fun_fun_nat_nat_prod_nat_fun_fun_tree$)Nat_nat_prod_nat_fun_nat_nat_prod_nat_fun_fun_nat_nat_prod_nat_fun_fun_tree$)
(declare-fun selecuo$ (Nat_nat_prod_nat_fun_nat_nat_prod_nat_fun_fun_nat_nat_prod_nat_fun_fun_tree$)Nat_nat_prod_nat_fun_nat_nat_prod_nat_fun_fun_nat_nat_prod_nat_fun_fun_tree$)
(declare-fun node$o (Nat_nat_prod_nat_fun_nat_nat_prod_nat_fun_fun_nat_nat_prod_nat_fun_fun$ Nat_nat_prod_nat_fun_nat_nat_prod_nat_fun_fun_nat_nat_prod_nat_fun_fun_tree$ Nat_nat_prod_nat_fun_nat_nat_prod_nat_fun_fun_nat_nat_prod_nat_fun_fun_tree$ )Nat_nat_prod_nat_fun_nat_nat_prod_nat_fun_fun_nat_nat_prod_nat_fun_fun_tree$)
(declare-fun selecup$ (Nat_nat_prod_nat_fun_nat_nat_prod_nat_fun_fun_nat_nat_prod_nat_fun_nat_nat_prod_nat_fun_fun_fun_tree$)Nat_nat_prod_nat_fun_nat_nat_prod_nat_fun_fun_nat_nat_prod_nat_fun_nat_nat_prod_nat_fun_fun_fun$)
(declare-fun selecuq$ (Nat_nat_prod_nat_fun_nat_nat_prod_nat_fun_fun_nat_nat_prod_nat_fun_nat_nat_prod_nat_fun_fun_fun_tree$)Nat_nat_prod_nat_fun_nat_nat_prod_nat_fun_fun_nat_nat_prod_nat_fun_nat_nat_prod_nat_fun_fun_fun_tree$)
(declare-fun selecur$ (Nat_nat_prod_nat_fun_nat_nat_prod_nat_fun_fun_nat_nat_prod_nat_fun_nat_nat_prod_nat_fun_fun_fun_tree$)Nat_nat_prod_nat_fun_nat_nat_prod_nat_fun_fun_nat_nat_prod_nat_fun_nat_nat_prod_nat_fun_fun_fun_tree$)
(declare-fun node$p (Nat_nat_prod_nat_fun_nat_nat_prod_nat_fun_fun_nat_nat_prod_nat_fun_nat_nat_prod_nat_fun_fun_fun$ Nat_nat_prod_nat_fun_nat_nat_prod_nat_fun_fun_nat_nat_prod_nat_fun_nat_nat_prod_nat_fun_fun_fun_tree$ Nat_nat_prod_nat_fun_nat_nat_prod_nat_fun_fun_nat_nat_prod_nat_fun_nat_nat_prod_nat_fun_fun_fun_tree$ )Nat_nat_prod_nat_fun_nat_nat_prod_nat_fun_fun_nat_nat_prod_nat_fun_nat_nat_prod_nat_fun_fun_fun_tree$)
(declare-fun root$b (Nat_tree_tree$)Nat_tree$)
(declare-fun left$b (Nat_tree_tree$)Nat_tree_tree$)
(declare-fun right$b (Nat_tree_tree$)Nat_tree_tree$)
(declare-fun node$q (Nat_tree$ Nat_tree_tree$ Nat_tree_tree$ )Nat_tree_tree$)
(declare-fun root$c (Nat_tree_tree_tree$)Nat_tree_tree$)
(declare-fun left$c (Nat_tree_tree_tree$)Nat_tree_tree_tree$)
(declare-fun right$c (Nat_tree_tree_tree$)Nat_tree_tree_tree$)
(declare-fun node$r (Nat_tree_tree$ Nat_tree_tree_tree$ Nat_tree_tree_tree$ )Nat_tree_tree_tree$)
(declare-fun x$ ()Nat$ )
(declare-fun uu$ ()Nat_nat_prod_nat_fun$ )
(declare-fun den$ ()Nat_tree$ )
(declare-fun less$ (Nat$ )Nat_bool_fun$ )
(declare-fun zero$ ()Nat$ )
(declare-fun zero$a ()Nat_tree_tree_tree$ )
(declare-fun zero$b ()Nat_tree_tree$ )
(declare-fun zero$c ()Nat_tree$ )
(declare-fun member$ (Nat$ Nat_set$ )Bool )
(declare-fun fun_app$ (Nat_nat_prod_nat_fun$ Nat_nat_prod$ )Nat$ )
(declare-fun tree_ap$ (Nat_nat_prod_nat_fun_tree$ Nat_nat_prod_tree$ )Nat_tree$ )
(declare-fun fun_app$a (Nat_bool_fun$ Nat$ )Bool )
(declare-fun fun_app$b (Nat_nat_prod_nat_fun_nat_nat_prod_nat_fun_fun$ Nat_nat_prod_nat_fun$ )Nat_nat_prod_nat_fun$ )
(declare-fun fun_app$c (Nat_nat_fun$ Nat$ )Nat$ )
(declare-fun fun_app$d (Nat_nat_nat_prod_fun$ Nat$ )Nat_nat_prod$ )
(declare-fun fun_app$e (Nat_nat_prod_nat_fun_nat_fun$ Nat_nat_prod_nat_fun$ )Nat$ )
(declare-fun fun_app$f (Nat_nat_prod_nat_nat_prod_fun$ Nat_nat_prod$ )Nat_nat_prod$ )
(declare-fun fun_app$g (Nat_nat_nat_prod_nat_fun_fun$ Nat$ )Nat_nat_prod_nat_fun$ )
(declare-fun fun_app$h (Nat_nat_prod_nat_fun_nat_nat_prod_fun$ Nat_nat_prod_nat_fun$ )Nat_nat_prod$ )
(declare-fun fun_app$i (Nat_nat_prod_nat_nat_prod_nat_fun_fun$ Nat_nat_prod$ )Nat_nat_prod_nat_fun$ )
(declare-fun fun_app$j (Nat_nat_nat_prod_nat_fun_nat_nat_prod_nat_fun_fun_fun$ Nat$ )Nat_nat_prod_nat_fun_nat_nat_prod_nat_fun_fun$ )
(declare-fun set_tree$ (Nat_tree$ )Nat_set$ )
(declare-fun tree_ap$a (Nat_nat_prod_nat_fun_nat_nat_prod_nat_fun_fun_tree$ Nat_nat_prod_nat_fun_tree$ )Nat_nat_prod_nat_fun_tree$ )
(declare-fun tree_ap$b (Nat_nat_fun_tree$ Nat_tree$ )Nat_tree$ )
(declare-fun tree_ap$c (Nat_nat_nat_prod_fun_tree$ Nat_tree$ )Nat_nat_prod_tree$ )
(declare-fun tree_ap$d (Nat_nat_prod_nat_fun_nat_fun_tree$ Nat_nat_prod_nat_fun_tree$ )Nat_tree$ )
(declare-fun tree_ap$e (Nat_nat_prod_nat_nat_prod_fun_tree$ Nat_nat_prod_tree$ )Nat_nat_prod_tree$ )
(declare-fun tree_ap$f (Nat_nat_nat_prod_nat_fun_fun_tree$ Nat_tree$ )Nat_nat_prod_nat_fun_tree$ )
(declare-fun tree_ap$g (Nat_nat_prod_nat_fun_nat_nat_prod_fun_tree$ Nat_nat_prod_nat_fun_tree$ )Nat_nat_prod_tree$ )
(declare-fun tree_ap$h (Nat_nat_prod_nat_nat_prod_nat_fun_fun_tree$ Nat_nat_prod_tree$ )Nat_nat_prod_nat_fun_tree$ )
(declare-fun tree_ap$i (Nat_nat_nat_prod_nat_fun_nat_nat_prod_nat_fun_fun_fun_tree$ Nat_tree$ )Nat_nat_prod_nat_fun_nat_nat_prod_nat_fun_fun_tree$ )
(declare-fun tree_ap$j (Nat_nat_prod_nat_fun_nat_nat_prod_nat_fun_nat_nat_prod_nat_fun_fun_fun_tree$ Nat_nat_prod_nat_fun_tree$ )Nat_nat_prod_nat_fun_nat_nat_prod_nat_fun_fun_tree$ )
(declare-fun tree_ap$k (Nat_nat_prod_nat_fun_nat_nat_prod_nat_fun_fun_nat_nat_prod_fun_tree$ Nat_nat_prod_nat_fun_nat_nat_prod_nat_fun_fun_tree$ )Nat_nat_prod_tree$ )
(declare-fun tree_ap$l (Nat_nat_prod_nat_fun_nat_nat_prod_nat_fun_fun_nat_fun_tree$ Nat_nat_prod_nat_fun_nat_nat_prod_nat_fun_fun_tree$ )Nat_tree$ )
(declare-fun tree_ap$m (Nat_nat_prod_nat_fun_nat_nat_prod_nat_fun_fun_nat_nat_prod_nat_fun_fun_tree$ Nat_nat_prod_nat_fun_nat_nat_prod_nat_fun_fun_tree$ )Nat_nat_prod_nat_fun_tree$ )
(declare-fun tree_ap$n (Nat_nat_prod_nat_fun_nat_nat_prod_nat_fun_fun_nat_nat_prod_nat_fun_nat_nat_prod_nat_fun_fun_fun_tree$ Nat_nat_prod_nat_fun_nat_nat_prod_nat_fun_fun_tree$ )Nat_nat_prod_nat_fun_nat_nat_prod_nat_fun_fun_tree$ )
(declare-fun tree_pure$ (Nat_nat_prod_nat_fun$ )Nat_nat_prod_nat_fun_tree$ )
(declare-fun tree_pure$a (Nat_nat_prod$ )Nat_nat_prod_tree$ )
(declare-fun tree_pure$b (Nat$ )Nat_tree$ )
(declare-fun tree_pure$c (Nat_nat_prod_nat_fun_nat_nat_prod_nat_fun_fun$ )Nat_nat_prod_nat_fun_nat_nat_prod_nat_fun_fun_tree$ )
(declare-fun tree_pure$d (Nat_nat_fun$ )Nat_nat_fun_tree$ )
(declare-fun tree_pure$e (Nat_nat_nat_prod_fun$ )Nat_nat_nat_prod_fun_tree$ )
(declare-fun tree_pure$f (Nat_nat_prod_nat_fun_nat_fun$ )Nat_nat_prod_nat_fun_nat_fun_tree$ )
(declare-fun tree_pure$g (Nat_nat_prod_nat_nat_prod_fun$ )Nat_nat_prod_nat_nat_prod_fun_tree$ )
(declare-fun tree_pure$h (Nat_nat_nat_prod_nat_fun_fun$ )Nat_nat_nat_prod_nat_fun_fun_tree$ )
(declare-fun tree_pure$i (Nat_nat_prod_nat_fun_nat_nat_prod_fun$ )Nat_nat_prod_nat_fun_nat_nat_prod_fun_tree$ )
(declare-fun tree_pure$j (Nat_nat_prod_nat_nat_prod_nat_fun_fun$ )Nat_nat_prod_nat_nat_prod_nat_fun_fun_tree$ )
(declare-fun tree_pure$k (Nat_nat_nat_prod_nat_fun_nat_nat_prod_nat_fun_fun_fun$ )Nat_nat_nat_prod_nat_fun_nat_nat_prod_nat_fun_fun_fun_tree$ )
(declare-fun tree_pure$l (Nat_nat_prod_nat_fun_nat_nat_prod_nat_fun_nat_nat_prod_nat_fun_fun_fun$ )Nat_nat_prod_nat_fun_nat_nat_prod_nat_fun_nat_nat_prod_nat_fun_fun_fun_tree$ )
(declare-fun tree_pure$m (Nat_nat_prod_nat_fun_nat_nat_prod_nat_fun_fun_nat_nat_prod_fun$ )Nat_nat_prod_nat_fun_nat_nat_prod_nat_fun_fun_nat_nat_prod_fun_tree$ )
(declare-fun tree_pure$n (Nat_nat_prod_nat_fun_nat_nat_prod_nat_fun_fun_nat_fun$ )Nat_nat_prod_nat_fun_nat_nat_prod_nat_fun_fun_nat_fun_tree$ )
(declare-fun tree_pure$o (Nat_nat_prod_nat_fun_nat_nat_prod_nat_fun_fun_nat_nat_prod_nat_fun_fun$ )Nat_nat_prod_nat_fun_nat_nat_prod_nat_fun_fun_nat_nat_prod_nat_fun_fun_tree$ )
(declare-fun tree_pure$p (Nat_nat_prod_nat_fun_nat_nat_prod_nat_fun_fun_nat_nat_prod_nat_fun_nat_nat_prod_nat_fun_fun_fun$ )Nat_nat_prod_nat_fun_nat_nat_prod_nat_fun_fun_nat_nat_prod_nat_fun_nat_nat_prod_nat_fun_fun_fun_tree$ )
(declare-fun tree_pure$q (Nat_tree_tree$ )Nat_tree_tree_tree$ )
(declare-fun tree_pure$r (Nat_tree$ )Nat_tree_tree$ )
(declare-fun stern_brocot$ ()Nat_nat_prod_tree$ )
(assert (! (forall ((?v0 Nat_nat_prod$ ))(! (= (fun_app$ uu$ ?v0 )(snd$ ?v0 )):pattern ((fun_app$ uu$ ?v0 )))):named a0 ))
(assert (! (not (fun_app$a (less$ zero$ )x$ )):named a1 ))
(assert (! (member$ x$ (set_tree$ (tree_ap$ (tree_pure$ uu$ )stern_brocot$ ))):named a2 ))
(assert (! (forall ((?v0 Nat_nat_prod_nat_fun$ )(?v1 Nat_nat_prod$ ))(= (tree_ap$ (tree_pure$ ?v0 )(tree_pure$a ?v1 ))(tree_pure$b (fun_app$ ?v0 ?v1 )))):named a3 ))
(assert (! (forall ((?v0 Nat_nat_prod_nat_fun_nat_nat_prod_nat_fun_fun$ )(?v1 Nat_nat_prod_nat_fun$ ))(= (tree_ap$a (tree_pure$c ?v0 )(tree_pure$ ?v1 ))(tree_pure$ (fun_app$b ?v0 ?v1 )))):named a4 ))
(assert (! (forall ((?v0 Nat_nat_fun$ )(?v1 Nat$ ))(= (tree_ap$b (tree_pure$d ?v0 )(tree_pure$b ?v1 ))(tree_pure$b (fun_app$c ?v0 ?v1 )))):named a5 ))
(assert (! (forall ((?v0 Nat_nat_nat_prod_fun$ )(?v1 Nat$ ))(= (tree_ap$c (tree_pure$e ?v0 )(tree_pure$b ?v1 ))(tree_pure$a (fun_app$d ?v0 ?v1 )))):named a6 ))
(assert (! (forall ((?v0 Nat_nat_prod_nat_fun_nat_fun$ )(?v1 Nat_nat_prod_nat_fun$ ))(= (tree_ap$d (tree_pure$f ?v0 )(tree_pure$ ?v1 ))(tree_pure$b (fun_app$e ?v0 ?v1 )))):named a7 ))
(assert (! (forall ((?v0 Nat_nat_prod_nat_nat_prod_fun$ )(?v1 Nat_nat_prod$ ))(= (tree_ap$e (tree_pure$g ?v0 )(tree_pure$a ?v1 ))(tree_pure$a (fun_app$f ?v0 ?v1 )))):named a8 ))
(assert (! (forall ((?v0 Nat_nat_nat_prod_nat_fun_fun$ )(?v1 Nat$ ))(= (tree_ap$f (tree_pure$h ?v0 )(tree_pure$b ?v1 ))(tree_pure$ (fun_app$g ?v0 ?v1 )))):named a9 ))
(assert (! (forall ((?v0 Nat_nat_prod_nat_fun_nat_nat_prod_fun$ )(?v1 Nat_nat_prod_nat_fun$ ))(= (tree_ap$g (tree_pure$i ?v0 )(tree_pure$ ?v1 ))(tree_pure$a (fun_app$h ?v0 ?v1 )))):named a10 ))
(assert (! (forall ((?v0 Nat_nat_prod_nat_nat_prod_nat_fun_fun$ )(?v1 Nat_nat_prod$ ))(= (tree_ap$h (tree_pure$j ?v0 )(tree_pure$a ?v1 ))(tree_pure$ (fun_app$i ?v0 ?v1 )))):named a11 ))
(assert (! (forall ((?v0 Nat_nat_nat_prod_nat_fun_nat_nat_prod_nat_fun_fun_fun$ )(?v1 Nat$ ))(= (tree_ap$i (tree_pure$k ?v0 )(tree_pure$b ?v1 ))(tree_pure$c (fun_app$j ?v0 ?v1 )))):named a12 ))
(assert (! (forall ((?v0 Nat_nat_prod_nat_fun_nat_nat_prod_nat_fun_nat_nat_prod_nat_fun_fun_fun$ )(?v1 Nat_nat_prod_nat_fun_nat_nat_prod_nat_fun_nat_nat_prod_nat_fun_fun_fun$ ))(= (= (tree_pure$l ?v0 )(tree_pure$l ?v1 ))(= ?v0 ?v1 ))):named a13 ))
(assert (! (forall ((?v0 Nat_nat_prod_nat_fun_nat_nat_prod_nat_fun_fun_nat_nat_prod_fun$ )(?v1 Nat_nat_prod_nat_fun_nat_nat_prod_nat_fun_fun_nat_nat_prod_fun$ ))(= (= (tree_pure$m ?v0 )(tree_pure$m ?v1 ))(= ?v0 ?v1 ))):named a14 ))
(assert (! (forall ((?v0 Nat_nat_prod_nat_fun_nat_nat_prod_nat_fun_fun_nat_fun$ )(?v1 Nat_nat_prod_nat_fun_nat_nat_prod_nat_fun_fun_nat_fun$ ))(= (= (tree_pure$n ?v0 )(tree_pure$n ?v1 ))(= ?v0 ?v1 ))):named a15 ))
(assert (! (forall ((?v0 Nat_nat_prod_nat_fun_nat_nat_prod_nat_fun_fun_nat_nat_prod_nat_fun_fun$ )(?v1 Nat_nat_prod_nat_fun_nat_nat_prod_nat_fun_fun_nat_nat_prod_nat_fun_fun$ ))(= (= (tree_pure$o ?v0 )(tree_pure$o ?v1 ))(= ?v0 ?v1 ))):named a16 ))
(assert (! (forall ((?v0 Nat_nat_prod_nat_fun_nat_nat_prod_nat_fun_fun_nat_nat_prod_nat_fun_nat_nat_prod_nat_fun_fun_fun$ )(?v1 Nat_nat_prod_nat_fun_nat_nat_prod_nat_fun_fun_nat_nat_prod_nat_fun_nat_nat_prod_nat_fun_fun_fun$ ))(= (= (tree_pure$p ?v0 )(tree_pure$p ?v1 ))(= ?v0 ?v1 ))):named a17 ))
(assert (! (forall ((?v0 Nat_nat_prod$ )(?v1 Nat_nat_prod$ ))(= (= (tree_pure$a ?v0 )(tree_pure$a ?v1 ))(= ?v0 ?v1 ))):named a18 ))
(assert (! (forall ((?v0 Nat$ )(?v1 Nat$ ))(= (= (tree_pure$b ?v0 )(tree_pure$b ?v1 ))(= ?v0 ?v1 ))):named a19 ))
(assert (! (forall ((?v0 Nat_nat_prod_nat_fun_nat_nat_prod_nat_fun_fun$ )(?v1 Nat_nat_prod_nat_fun_nat_nat_prod_nat_fun_fun$ ))(= (= (tree_pure$c ?v0 )(tree_pure$c ?v1 ))(= ?v0 ?v1 ))):named a20 ))
(assert (! (forall ((?v0 Nat_nat_prod_nat_fun$ )(?v1 Nat_nat_prod_nat_fun$ ))(= (= (tree_pure$ ?v0 )(tree_pure$ ?v1 ))(= ?v0 ?v1 ))):named a21 ))
(assert (! (= zero$a (tree_pure$q zero$b )):named a22 ))
(assert (! (= zero$b (tree_pure$r zero$c )):named a23 ))
(assert (! (= zero$c (tree_pure$b zero$ )):named a24 ))
(assert (! (forall ((?v0 Nat_nat_prod_nat_fun_nat_nat_prod_nat_fun_nat_nat_prod_nat_fun_fun_fun_tree$ )(?v1 Nat_nat_prod_nat_fun_nat_nat_prod_nat_fun_nat_nat_prod_nat_fun_fun_fun_tree$ ))(=> (forall ((?v2 Nat_nat_prod_nat_fun$ ))(= (tree_ap$j ?v0 (tree_pure$ ?v2 ))(tree_ap$j ?v1 (tree_pure$ ?v2 ))))(= ?v0 ?v1 ))):named a25 ))
(assert (! (forall ((?v0 Nat_nat_prod_nat_fun_nat_nat_prod_nat_fun_fun_nat_nat_prod_fun_tree$ )(?v1 Nat_nat_prod_nat_fun_nat_nat_prod_nat_fun_fun_nat_nat_prod_fun_tree$ ))(=> (forall ((?v2 Nat_nat_prod_nat_fun_nat_nat_prod_nat_fun_fun$ ))(= (tree_ap$k ?v0 (tree_pure$c ?v2 ))(tree_ap$k ?v1 (tree_pure$c ?v2 ))))(= ?v0 ?v1 ))):named a26 ))
(assert (! (forall ((?v0 Nat_nat_prod_nat_fun_nat_nat_prod_nat_fun_fun_nat_fun_tree$ )(?v1 Nat_nat_prod_nat_fun_nat_nat_prod_nat_fun_fun_nat_fun_tree$ ))(=> (forall ((?v2 Nat_nat_prod_nat_fun_nat_nat_prod_nat_fun_fun$ ))(= (tree_ap$l ?v0 (tree_pure$c ?v2 ))(tree_ap$l ?v1 (tree_pure$c ?v2 ))))(= ?v0 ?v1 ))):named a27 ))
(assert (! (forall ((?v0 Nat_nat_prod_nat_fun_nat_nat_prod_nat_fun_fun_nat_nat_prod_nat_fun_fun_tree$ )(?v1 Nat_nat_prod_nat_fun_nat_nat_prod_nat_fun_fun_nat_nat_prod_nat_fun_fun_tree$ ))(=> (forall ((?v2 Nat_nat_prod_nat_fun_nat_nat_prod_nat_fun_fun$ ))(= (tree_ap$m ?v0 (tree_pure$c ?v2 ))(tree_ap$m ?v1 (tree_pure$c ?v2 ))))(= ?v0 ?v1 ))):named a28 ))
(assert (! (forall ((?v0 Nat_nat_prod_nat_fun_nat_nat_prod_nat_fun_fun_nat_nat_prod_nat_fun_nat_nat_prod_nat_fun_fun_fun_tree$ )(?v1 Nat_nat_prod_nat_fun_nat_nat_prod_nat_fun_fun_nat_nat_prod_nat_fun_nat_nat_prod_nat_fun_fun_fun_tree$ ))(=> (forall ((?v2 Nat_nat_prod_nat_fun_nat_nat_prod_nat_fun_fun$ ))(= (tree_ap$n ?v0 (tree_pure$c ?v2 ))(tree_ap$n ?v1 (tree_pure$c ?v2 ))))(= ?v0 ?v1 ))):named a29 ))
(assert (! (forall ((?v0 Nat_nat_prod_nat_fun_nat_nat_prod_nat_fun_fun_tree$ )(?v1 Nat_nat_prod_nat_fun_nat_nat_prod_nat_fun_fun_tree$ ))(=> (forall ((?v2 Nat_nat_prod_nat_fun$ ))(= (tree_ap$a ?v0 (tree_pure$ ?v2 ))(tree_ap$a ?v1 (tree_pure$ ?v2 ))))(= ?v0 ?v1 ))):named a30 ))
(assert (! (forall ((?v0 Nat_nat_prod_nat_fun_tree$ )(?v1 Nat_nat_prod_nat_fun_tree$ ))(=> (forall ((?v2 Nat_nat_prod$ ))(= (tree_ap$ ?v0 (tree_pure$a ?v2 ))(tree_ap$ ?v1 (tree_pure$a ?v2 ))))(= ?v0 ?v1 ))):named a31 ))
(assert (! (forall ((?v0 Nat_nat_prod_nat_fun_nat_nat_prod_nat_fun_nat_nat_prod_nat_fun_fun_fun_tree$ )(?v1 Nat_nat_prod_nat_fun_nat_nat_prod_nat_fun_nat_nat_prod_nat_fun_fun_fun_tree$ ))(=> (forall ((?v2 Nat_nat_prod_nat_fun_tree$ ))(= (tree_ap$j ?v0 ?v2 )(tree_ap$j ?v1 ?v2 )))(= ?v0 ?v1 ))):named a32 ))
(assert (! (forall ((?v0 Nat_nat_prod_nat_fun_nat_nat_prod_nat_fun_fun_nat_nat_prod_fun_tree$ )(?v1 Nat_nat_prod_nat_fun_nat_nat_prod_nat_fun_fun_nat_nat_prod_fun_tree$ ))(=> (forall ((?v2 Nat_nat_prod_nat_fun_nat_nat_prod_nat_fun_fun_tree$ ))(= (tree_ap$k ?v0 ?v2 )(tree_ap$k ?v1 ?v2 )))(= ?v0 ?v1 ))):named a33 ))
(assert (! (forall ((?v0 Nat_nat_prod_nat_fun_nat_nat_prod_nat_fun_fun_nat_fun_tree$ )(?v1 Nat_nat_prod_nat_fun_nat_nat_prod_nat_fun_fun_nat_fun_tree$ ))(=> (forall ((?v2 Nat_nat_prod_nat_fun_nat_nat_prod_nat_fun_fun_tree$ ))(= (tree_ap$l ?v0 ?v2 )(tree_ap$l ?v1 ?v2 )))(= ?v0 ?v1 ))):named a34 ))
(assert (! (forall ((?v0 Nat_nat_prod_nat_fun_nat_nat_prod_nat_fun_fun_nat_nat_prod_nat_fun_fun_tree$ )(?v1 Nat_nat_prod_nat_fun_nat_nat_prod_nat_fun_fun_nat_nat_prod_nat_fun_fun_tree$ ))(=> (forall ((?v2 Nat_nat_prod_nat_fun_nat_nat_prod_nat_fun_fun_tree$ ))(= (tree_ap$m ?v0 ?v2 )(tree_ap$m ?v1 ?v2 )))(= ?v0 ?v1 ))):named a35 ))
(assert (! (forall ((?v0 Nat_nat_prod_nat_fun_nat_nat_prod_nat_fun_fun_nat_nat_prod_nat_fun_nat_nat_prod_nat_fun_fun_fun_tree$ )(?v1 Nat_nat_prod_nat_fun_nat_nat_prod_nat_fun_fun_nat_nat_prod_nat_fun_nat_nat_prod_nat_fun_fun_fun_tree$ ))(=> (forall ((?v2 Nat_nat_prod_nat_fun_nat_nat_prod_nat_fun_fun_tree$ ))(= (tree_ap$n ?v0 ?v2 )(tree_ap$n ?v1 ?v2 )))(= ?v0 ?v1 ))):named a36 ))
(assert (! (forall ((?v0 Nat_nat_prod_nat_fun_nat_nat_prod_nat_fun_fun_tree$ )(?v1 Nat_nat_prod_nat_fun_nat_nat_prod_nat_fun_fun_tree$ ))(=> (forall ((?v2 Nat_nat_prod_nat_fun_tree$ ))(= (tree_ap$a ?v0 ?v2 )(tree_ap$a ?v1 ?v2 )))(= ?v0 ?v1 ))):named a37 ))
(assert (! (forall ((?v0 Nat_nat_prod_nat_fun_tree$ )(?v1 Nat_nat_prod_nat_fun_tree$ ))(=> (forall ((?v2 Nat_nat_prod_tree$ ))(= (tree_ap$ ?v0 ?v2 )(tree_ap$ ?v1 ?v2 )))(= ?v0 ?v1 ))):named a38 ))
(assert (! (forall ((?v0 Nat$ ))(= (not (= ?v0 zero$ ))(fun_app$a (less$ zero$ )?v0 ))):named a39 ))
(assert (! (forall ((?v0 Nat$ ))(= (not (fun_app$a (less$ zero$ )?v0 ))(= ?v0 zero$ ))):named a40 ))
(assert (! (forall ((?v0 Nat$ ))(! (= (fun_app$a (less$ ?v0 )zero$ )false ):pattern ((less$ ?v0 )))):named a41 ))
(assert (! (= den$ (tree_ap$ (tree_pure$ uu$ )stern_brocot$ )):named a42 ))
(assert (! (forall ((?v0 Nat$ ))(=> (=> (= ?v0 zero$ )false )(fun_app$a (less$ zero$ )?v0 ))):named a43 ))
(assert (! (forall ((?v0 Nat$ )(?v1 Nat$ ))(=> (fun_app$a (less$ ?v0 )?v1 )(not (= ?v1 zero$ )))):named a44 ))
(assert (! (forall ((?v0 Nat$ ))(=> (fun_app$a (less$ ?v0 )zero$ )false )):named a45 ))
(assert (! (forall ((?v0 Nat_bool_fun$ )(?v1 Nat$ ))(=> (and (fun_app$a ?v0 zero$ )(forall ((?v2 Nat$ ))(=> (and (fun_app$a (less$ zero$ )?v2 )(not (fun_app$a ?v0 ?v2 )))(exists ((?v3 Nat$ ))(and (fun_app$a (less$ ?v3 )?v2 )(not (fun_app$a ?v0 ?v3 )))))))(fun_app$a ?v0 ?v1 ))):named a46 ))
(assert (! (forall ((?v0 Nat$ ))(not (fun_app$a (less$ ?v0 )zero$ ))):named a47 ))
(assert (! (not (fun_app$a (less$ zero$ )zero$ )):named a48 ))
(check-sat )
;(get-unsat-core )
